unknown
(model
; cardinality of BoundSet is 3
(declare-sort BoundSet 0)
; rep: @uc_BoundSet_0
; rep: @uc_BoundSet_1
; rep: @uc_BoundSet_2
; cardinality of UnboundSet is 1
(declare-sort UnboundSet 0)
(declare-fun groundTerm_4 () UnboundSet)
(define-fun IsInFrontOf ((BOUND_VARIABLE_515 BoundSet) (BOUND_VARIABLE_516 BoundSet)) Bool true)
(define-fun IsMan ((BOUND_VARIABLE_519 BoundSet)) Bool true)
(define-fun IsWoman ((BOUND_VARIABLE_519 BoundSet)) Bool true)
(define-fun IsPreparing ((BOUND_VARIABLE_515 BoundSet) (BOUND_VARIABLE_516 BoundSet)) Bool false)
)
sat
(model
; cardinality of BoundSet is 1
(declare-sort BoundSet 0)
; rep: @uc_BoundSet_0
; cardinality of UnboundSet is 1
(declare-sort UnboundSet 0)
(declare-fun groundTerm_8 () UnboundSet)
(define-fun IsInFrontOf ((BOUND_VARIABLE_546 BoundSet) (BOUND_VARIABLE_547 BoundSet)) Bool true)
(define-fun IsMan ((BOUND_VARIABLE_550 BoundSet)) Bool true)
(define-fun IsWoman ((BOUND_VARIABLE_550 BoundSet)) Bool true)
(define-fun IsPreparing ((BOUND_VARIABLE_546 BoundSet) (BOUND_VARIABLE_547 BoundSet)) Bool false)
)
